(set-logic QF_SLIA)
(declare-const result String)
(declare-const attack String)
(declare-const prefix RegLan)
(declare-const infix RegLan)
(declare-const postfix RegLan)
(declare-const postfixs String)

(assert (str.in_re attack (re.++ prefix ((_ re.loop 5000 5000) infix) postfix)))
(assert (= prefix 
     (re.++  (str.to_re "\u{2d}") (re.++  (str.to_re "\u{69}") (re.++  (str.to_re "\u{50}") (re.++  (str.to_re "\u{68}") (re.++  (str.to_re "\u{6f}") (re.++  (str.to_re "\u{6e}") (re.++  (str.to_re "\u{65}") (re.++  (str.to_re "\u{2f}")  (str.to_re "\u{31}")))))))))
))
(assert (= infix 
        (re.inter  (re.++ (re.+ (re.range "0" "9") ) (re.+ (re.range "0" "9") ))  (re.++ (re.+ (re.range "0" "9") ) (re.++ (re.opt re.allchar ) (re.+ (re.range "0" "9") ))) )
))
(assert (= postfix 
         (re.++  (str.to_re "\u{0a}")  (str.to_re "\u{40}"))
))
(assert (str.in_re postfixs postfix))
(assert (>= (str.len postfixs) 1))
(assert (= result (str.++ attack postfixs)))
(check-sat)
(get-model)